Route #1: 132
Route #2: 63 15 81 68 30 8 84 107 44 70 22 27 4 67 55 126 20 28 75 98 65 42 7 23
Route #3: 21 45 93 94 102 88 66 53 77 121 5 97 13 96 59
Route #4: 46 99 104 111 6 108 90 36 43 120
Route #5: 123 54 110 32 24 37 62 10
Route #6: 9 47 18 73 39 2 41 34
Route #7: 31 92 29 119 57 106 85 12
Route #8: 3 72 124 33 86 103 26 35 50
Route #9: 105 25 113 89 116 16 51 14
Route #10: 115 80 82 133 130 19 38 74
Route #11: 129 101 112 114 11 52 131 122
Route #12: 128 61 71 49 79 117 64 48 1 69
Route #13: 109 78 56 87 125 127 17 76
Route #14: 118 91 58 60 95 40 100 83
Cost 11774.486762013606